\ This file has been generated by DOcplex
\ ENCODING=ISO-8859-1
\Problem name: random_problem.lp

Minimize
 obj: 6 x0 - 10 x1 - 2 x2 + 6 x3 + 3 x5 + 4 x6 - 8 x7 + 4 x8 + 4 x9 + 9 x10
      - 6 x11 + 8 x12 - 8 x13 - x14 + 5 x15 - x16 + 6 x17 + 9 x18 + 3 x19
      + 5 x20 - 5 x21 + 8 x22 + [ - 2 x0*x1 + 20 x0*x2 - 14 x0*x3 - 20 x0*x6
      + 6 x0*x9 - 4 x0*x12 + 14 x0*x15 + 14 x0*x18 + 6 x0*x19 + 10 x0*x22
      - 14 x1*x5 + 8 x1*x7 - 8 x1*x8 + 4 x1*x9 - 16 x1*x12 + 16 x1*x13
      + 14 x1*x15 + 20 x1*x17 + 6 x1*x22 + 16 x2*x4 - 8 x2*x6 - 2 x2*x9
      - 14 x2*x11 - 10 x2*x14 + 20 x2*x15 - 14 x2*x16 - 16 x2*x17 - 2 x2*x19
      + 8 x3*x5 + 12 x3*x6 - 14 x3*x9 - 2 x3*x10 - 6 x3*x11 - 10 x3*x13
      + 8 x3*x16 + 6 x3*x20 + 18 x3*x21 + 20 x4*x6 - 4 x4*x8 + 12 x4*x12
      - 20 x4*x15 - 18 x4*x16 + 4 x4*x17 + 4 x4*x19 - 8 x4*x20 + 20 x4*x21
      - 12 x5*x7 + 6 x5*x8 + 6 x5*x10 - 16 x5*x11 + 14 x5*x16 - 16 x5*x17
      - 18 x5*x18 + 14 x5*x21 - 14 x6*x7 - 4 x6*x8 - 2 x6*x10 + 14 x6*x15
      + 18 x6*x19 + 18 x6*x21 - 4 x7*x9 - 20 x7*x13 - 20 x7*x16 + 18 x7*x17
      - 8 x7*x18 - 12 x7*x19 - 20 x7*x22 + 16 x8*x10 + 18 x8*x12 + 20 x8*x14
      + 18 x8*x15 + 18 x8*x16 + 16 x8*x22 + 20 x9*x10 - 2 x9*x11 - 16 x9*x16
      + 14 x9*x20 + 20 x9*x22 + 4 x10*x13 + 4 x10*x14 - 8 x10*x17 + 20 x10*x18
      + 18 x10*x21 - 8 x11*x15 + 4 x11*x16 + 10 x11*x18 - 16 x11*x19 - 8 x11*x20
      - 16 x11*x22 - 10 x12*x14 + 10 x12*x15 + 4 x12*x16 - 18 x12*x17
      + 8 x12*x19 - 12 x12*x22 - 10 x13*x17 + 16 x13*x18 - 12 x13*x19
      + 10 x13*x20 - 10 x13*x21 - 8 x13*x22 + 12 x14*x17 - 6 x14*x18
      - 18 x14*x19 + 10 x14*x20 - 14 x14*x21 + 4 x14*x22 - 10 x15*x17
      + 2 x15*x20 + 16 x16*x21 - 12 x18*x19 + 10 x18*x20 - 12 x18*x21
      - 8 x20*x21 - 4 x20*x22 ]/2
Subject To
 c0: - x2 - x3 - x6 - 2 x7 + x9 - 2 x12 + 2 x13 + x20 - x21 - 2 x22 = 1
 c1: x2 - 2 x5 + x7 + x9 - x10 - x11 + x13 - 2 x14 - x15 - x16 = 1
 c2: - x2 - 2 x3 - x5 + x6 - 2 x7 - 2 x9 + x13 - 2 x15 - 2 x20 - 2 x21 = -1
 c3: x0 - x7 - 2 x10 - 2 x11 - 2 x13 - x14 + 2 x15 + 2 x16 - x17 - 2 x20 = 1

Bounds
 0 <= x0 <= 1
 0 <= x1 <= 1
 0 <= x2 <= 1
 0 <= x3 <= 1
 0 <= x4 <= 1
 0 <= x5 <= 1
 0 <= x6 <= 1
 0 <= x7 <= 1
 0 <= x8 <= 1
 0 <= x9 <= 1
 0 <= x10 <= 1
 0 <= x11 <= 1
 0 <= x12 <= 1
 0 <= x13 <= 1
 0 <= x14 <= 1
 0 <= x15 <= 1
 0 <= x16 <= 1
 0 <= x17 <= 1
 0 <= x18 <= 1
 0 <= x19 <= 1
 0 <= x20 <= 1
 0 <= x21 <= 1
 0 <= x22 <= 1

Binaries
 x0 x1 x2 x3 x4 x5 x6 x7 x8 x9 x10 x11 x12 x13 x14 x15 x16 x17 x18 x19 x20 x21
 x22
End
